p cnf 386 460
-11 2 -12 21 22 0
-11 2 -12 21 -22 0
-11 2 -12 -21 23 0
-11 2 -12 -21 -23 0
-3 -2 19 24 25 0
-3 -2 19 24 -25 0
-3 -2 19 -24 26 0
-3 -2 19 -24 -26 0
5 -8 1 27 28 0
5 -8 1 27 -28 0
5 -8 1 -27 29 0
5 -8 1 -27 -29 0
11 19 -13 30 31 0
11 19 -13 30 -31 0
11 19 -13 -30 32 0
11 19 -13 -30 -32 0
6 12 -9 33 34 0
6 12 -9 33 -34 0
6 12 -9 -33 35 0
6 12 -9 -33 -35 0
12 -3 11 36 37 0
12 -3 11 36 -37 0
12 -3 11 -36 38 0
12 -3 11 -36 -38 0
8 -14 2 39 40 0
8 -14 2 39 -40 0
8 -14 2 -39 41 0
8 -14 2 -39 -41 0
-10 -19 -5 42 43 0
-10 -19 -5 42 -43 0
-10 -19 -5 -42 44 0
-10 -19 -5 -42 -44 0
-9 15 6 45 46 0
-9 15 6 45 -46 0
-9 15 6 -45 47 0
-9 15 6 -45 -47 0
17 15 8 48 49 0
17 15 8 48 -49 0
17 15 8 -48 50 0
17 15 8 -48 -50 0
-5 16 13 51 52 0
-5 16 13 51 -52 0
-5 16 13 -51 53 0
-5 16 13 -51 -53 0
-18 -8 -19 54 55 0
-18 -8 -19 54 -55 0
-18 -8 -19 -54 56 0
-18 -8 -19 -54 -56 0
3 4 10 57 58 0
3 4 10 57 -58 0
3 4 10 -57 59 0
3 4 10 -57 -59 0
19 10 1 60 61 0
19 10 1 60 -61 0
19 10 1 -60 62 0
19 10 1 -60 -62 0
7 18 14 63 64 0
7 18 14 63 -64 0
7 18 14 -63 65 0
7 18 14 -63 -65 0
8 -18 16 66 67 0
8 -18 16 66 -67 0
8 -18 16 -66 68 0
8 -18 16 -66 -68 0
-20 7 19 69 70 0
-20 7 19 69 -70 0
-20 7 19 -69 71 0
-20 7 19 -69 -71 0
3 19 7 72 73 0
3 19 7 72 -73 0
3 19 7 -72 74 0
3 19 7 -72 -74 0
-14 5 -10 75 76 0
-14 5 -10 75 -76 0
-14 5 -10 -75 77 0
-14 5 -10 -75 -77 0
-12 7 -10 78 79 0
-12 7 -10 78 -79 0
-12 7 -10 -78 80 0
-12 7 -10 -78 -80 0
4 7 10 81 82 0
4 7 10 81 -82 0
4 7 10 -81 83 0
4 7 10 -81 -83 0
6 -11 -9 84 85 0
6 -11 -9 84 -85 0
6 -11 -9 -84 86 0
6 -11 -9 -84 -86 0
-6 -14 17 87 88 0
-6 -14 17 87 -88 0
-6 -14 17 -87 89 0
-6 -14 17 -87 -89 0
18 10 -6 90 91 0
18 10 -6 90 -91 0
18 10 -6 -90 92 0
18 10 -6 -90 -92 0
-4 -17 20 93 94 0
-4 -17 20 93 -94 0
-4 -17 20 -93 95 0
-4 -17 20 -93 -95 0
7 -15 16 96 97 0
7 -15 16 96 -97 0
7 -15 16 -96 98 0
7 -15 16 -96 -98 0
-6 -10 -14 99 100 0
-6 -10 -14 99 -100 0
-6 -10 -14 -99 101 0
-6 -10 -14 -99 -101 0
16 13 9 102 103 0
16 13 9 102 -103 0
16 13 9 -102 104 0
16 13 9 -102 -104 0
-6 20 16 105 106 0
-6 20 16 105 -106 0
-6 20 16 -105 107 0
-6 20 16 -105 -107 0
17 -20 -9 108 109 0
17 -20 -9 108 -109 0
17 -20 -9 -108 110 0
17 -20 -9 -108 -110 0
-16 6 11 111 112 0
-16 6 11 111 -112 0
-16 6 11 -111 113 0
-16 6 11 -111 -113 0
16 12 -19 114 115 0
16 12 -19 114 -115 0
16 12 -19 -114 116 0
16 12 -19 -114 -116 0
-2 18 12 117 118 0
-2 18 12 117 -118 0
-2 18 12 -117 119 0
-2 18 12 -117 -119 0
-1 10 2 120 121 0
-1 10 2 120 -121 0
-1 10 2 -120 122 0
-1 10 2 -120 -122 0
6 -19 -14 123 124 0
6 -19 -14 123 -124 0
6 -19 -14 -123 125 0
6 -19 -14 -123 -125 0
-4 3 -2 126 127 0
-4 3 -2 126 -127 0
-4 3 -2 -126 128 0
-4 3 -2 -126 -128 0
11 1 10 129 130 0
11 1 10 129 -130 0
11 1 10 -129 131 0
11 1 10 -129 -131 0
-3 19 1 132 133 0
-3 19 1 132 -133 0
-3 19 1 -132 134 0
-3 19 1 -132 -134 0
-14 4 -11 135 136 0
-14 4 -11 135 -136 0
-14 4 -11 -135 137 0
-14 4 -11 -135 -137 0
-14 -10 2 138 139 0
-14 -10 2 138 -139 0
-14 -10 2 -138 140 0
-14 -10 2 -138 -140 0
14 -2 -20 141 142 0
14 -2 -20 141 -142 0
14 -2 -20 -141 143 0
14 -2 -20 -141 -143 0
-2 -11 4 144 145 0
-2 -11 4 144 -145 0
-2 -11 4 -144 146 0
-2 -11 4 -144 -146 0
-11 7 -6 147 148 0
-11 7 -6 147 -148 0
-11 7 -6 -147 149 0
-11 7 -6 -147 -149 0
16 11 15 150 151 0
16 11 15 150 -151 0
16 11 15 -150 152 0
16 11 15 -150 -152 0
19 -15 -10 153 154 0
19 -15 -10 153 -154 0
19 -15 -10 -153 155 0
19 -15 -10 -153 -155 0
2 16 4 156 157 0
2 16 4 156 -157 0
2 16 4 -156 158 0
2 16 4 -156 -158 0
-10 17 -9 159 160 0
-10 17 -9 159 -160 0
-10 17 -9 -159 161 0
-10 17 -9 -159 -161 0
-10 -17 -3 162 163 0
-10 -17 -3 162 -163 0
-10 -17 -3 -162 164 0
-10 -17 -3 -162 -164 0
-8 -9 -2 165 166 0
-8 -9 -2 165 -166 0
-8 -9 -2 -165 167 0
-8 -9 -2 -165 -167 0
8 7 -9 168 169 0
8 7 -9 168 -169 0
8 7 -9 -168 170 0
8 7 -9 -168 -170 0
18 -14 -5 171 172 0
18 -14 -5 171 -172 0
18 -14 -5 -171 173 0
18 -14 -5 -171 -173 0
20 -7 13 174 175 0
20 -7 13 174 -175 0
20 -7 13 -174 176 0
20 -7 13 -174 -176 0
7 14 5 177 178 0
7 14 5 177 -178 0
7 14 5 -177 179 0
7 14 5 -177 -179 0
11 -18 5 180 181 0
11 -18 5 180 -181 0
11 -18 5 -180 182 0
11 -18 5 -180 -182 0
-11 1 14 183 184 0
-11 1 14 183 -184 0
-11 1 14 -183 185 0
-11 1 14 -183 -185 0
-10 1 -18 186 187 0
-10 1 -18 186 -187 0
-10 1 -18 -186 188 0
-10 1 -18 -186 -188 0
8 -4 3 189 190 0
8 -4 3 189 -190 0
8 -4 3 -189 191 0
8 -4 3 -189 -191 0
3 20 14 192 193 0
3 20 14 192 -193 0
3 20 14 -192 194 0
3 20 14 -192 -194 0
-11 -13 -20 195 196 0
-11 -13 -20 195 -196 0
-11 -13 -20 -195 197 0
-11 -13 -20 -195 -197 0
-20 -6 -14 198 199 0
-20 -6 -14 198 -199 0
-20 -6 -14 -198 200 0
-20 -6 -14 -198 -200 0
-16 8 -17 201 202 0
-16 8 -17 201 -202 0
-16 8 -17 -201 203 0
-16 8 -17 -201 -203 0
-10 9 -4 204 205 0
-10 9 -4 204 -205 0
-10 9 -4 -204 206 0
-10 9 -4 -204 -206 0
13 -12 -16 207 208 0
13 -12 -16 207 -208 0
13 -12 -16 -207 209 0
13 -12 -16 -207 -209 0
9 10 11 210 211 0
9 10 11 210 -211 0
9 10 11 -210 212 0
9 10 11 -210 -212 0
-1 -4 12 213 214 0
-1 -4 12 213 -214 0
-1 -4 12 -213 215 0
-1 -4 12 -213 -215 0
12 -17 8 216 217 0
12 -17 8 216 -217 0
12 -17 8 -216 218 0
12 -17 8 -216 -218 0
14 -7 11 219 220 0
14 -7 11 219 -220 0
14 -7 11 -219 221 0
14 -7 11 -219 -221 0
19 6 -2 222 223 0
19 6 -2 222 -223 0
19 6 -2 -222 224 0
19 6 -2 -222 -224 0
14 -15 -10 225 226 0
14 -15 -10 225 -226 0
14 -15 -10 -225 227 0
14 -15 -10 -225 -227 0
-2 -3 -7 228 229 0
-2 -3 -7 228 -229 0
-2 -3 -7 -228 230 0
-2 -3 -7 -228 -230 0
-7 -10 -13 231 232 0
-7 -10 -13 231 -232 0
-7 -10 -13 -231 233 0
-7 -10 -13 -231 -233 0
-3 -8 -17 234 235 0
-3 -8 -17 234 -235 0
-3 -8 -17 -234 236 0
-3 -8 -17 -234 -236 0
20 -12 18 237 238 0
20 -12 18 237 -238 0
20 -12 18 -237 239 0
20 -12 18 -237 -239 0
-2 10 -17 240 241 0
-2 10 -17 240 -241 0
-2 10 -17 -240 242 0
-2 10 -17 -240 -242 0
-7 12 -18 243 244 0
-7 12 -18 243 -244 0
-7 12 -18 -243 245 0
-7 12 -18 -243 -245 0
9 15 -5 246 247 0
9 15 -5 246 -247 0
9 15 -5 -246 248 0
9 15 -5 -246 -248 0
12 -6 -8 249 250 0
12 -6 -8 249 -250 0
12 -6 -8 -249 251 0
12 -6 -8 -249 -251 0
5 11 -17 252 253 0
5 11 -17 252 -253 0
5 11 -17 -252 254 0
5 11 -17 -252 -254 0
-8 17 15 255 256 0
-8 17 15 255 -256 0
-8 17 15 -255 257 0
-8 17 15 -255 -257 0
-5 18 7 258 259 0
-5 18 7 258 -259 0
-5 18 7 -258 260 0
-5 18 7 -258 -260 0
6 19 -7 261 262 0
6 19 -7 261 -262 0
6 19 -7 -261 263 0
6 19 -7 -261 -263 0
20 10 6 264 265 0
20 10 6 264 -265 0
20 10 6 -264 266 0
20 10 6 -264 -266 0
-8 20 -1 267 268 0
-8 20 -1 267 -268 0
-8 20 -1 -267 269 0
-8 20 -1 -267 -269 0
2 14 1 270 271 0
2 14 1 270 -271 0
2 14 1 -270 272 0
2 14 1 -270 -272 0
-6 -11 2 273 274 0
-6 -11 2 273 -274 0
-6 -11 2 -273 275 0
-6 -11 2 -273 -275 0
-10 19 -14 276 277 0
-10 19 -14 276 -277 0
-10 19 -14 -276 278 0
-10 19 -14 -276 -278 0
-17 12 16 279 280 0
-17 12 16 279 -280 0
-17 12 16 -279 281 0
-17 12 16 -279 -281 0
8 20 2 282 283 0
8 20 2 282 -283 0
8 20 2 -282 284 0
8 20 2 -282 -284 0
4 -8 -15 285 286 0
4 -8 -15 285 -286 0
4 -8 -15 -285 287 0
4 -8 -15 -285 -287 0
-9 1 -11 288 289 0
-9 1 -11 288 -289 0
-9 1 -11 -288 290 0
-9 1 -11 -288 -290 0
-20 19 11 291 292 0
-20 19 11 291 -292 0
-20 19 11 -291 293 0
-20 19 11 -291 -293 0
294 295 297 301 309 0
294 295 297 301 -309 0
294 295 297 -301 310 0
294 295 297 -301 -310 0
294 295 -297 302 311 0
294 295 -297 302 -311 0
294 295 -297 -302 312 0
294 295 -297 -302 -312 0
294 -295 298 303 313 0
294 -295 298 303 -313 0
294 -295 298 -303 314 0
294 -295 298 -303 -314 0
294 -295 -298 304 315 0
294 -295 -298 304 -315 0
294 -295 -298 -304 316 0
294 -295 -298 -304 -316 0
-294 296 299 305 317 0
-294 296 299 305 -317 0
-294 296 299 -305 318 0
-294 296 299 -305 -318 0
-294 296 -299 306 319 0
-294 296 -299 306 -319 0
-294 296 -299 -306 320 0
-294 296 -299 -306 -320 0
-294 -296 300 307 321 0
-294 -296 300 307 -321 0
-294 -296 300 -307 322 0
-294 -296 300 -307 -322 0
-294 -296 -300 308 323 0
-294 -296 -300 308 -323 0
-294 -296 -300 -308 324 0
-294 -296 -300 -308 -324 0
325 326 328 332 340 0
325 326 328 332 -340 0
325 326 328 -332 341 0
325 326 328 -332 -341 0
325 326 -328 333 342 0
325 326 -328 333 -342 0
325 326 -328 -333 343 0
325 326 -328 -333 -343 0
325 -326 329 334 344 0
325 -326 329 334 -344 0
325 -326 329 -334 345 0
325 -326 329 -334 -345 0
325 -326 -329 335 346 0
325 -326 -329 335 -346 0
325 -326 -329 -335 347 0
325 -326 -329 -335 -347 0
-325 327 330 336 348 0
-325 327 330 336 -348 0
-325 327 330 -336 349 0
-325 327 330 -336 -349 0
-325 327 -330 337 350 0
-325 327 -330 337 -350 0
-325 327 -330 -337 351 0
-325 327 -330 -337 -351 0
-325 -327 331 338 352 0
-325 -327 331 338 -352 0
-325 -327 331 -338 353 0
-325 -327 331 -338 -353 0
-325 -327 -331 339 354 0
-325 -327 -331 339 -354 0
-325 -327 -331 -339 355 0
-325 -327 -331 -339 -355 0
356 357 359 363 371 0
356 357 359 363 -371 0
356 357 359 -363 372 0
356 357 359 -363 -372 0
356 357 -359 364 373 0
356 357 -359 364 -373 0
356 357 -359 -364 374 0
356 357 -359 -364 -374 0
356 -357 360 365 375 0
356 -357 360 365 -375 0
356 -357 360 -365 376 0
356 -357 360 -365 -376 0
356 -357 -360 366 377 0
356 -357 -360 366 -377 0
356 -357 -360 -366 378 0
356 -357 -360 -366 -378 0
-356 358 361 367 379 0
-356 358 361 367 -379 0
-356 358 361 -367 380 0
-356 358 361 -367 -380 0
-356 358 -361 368 381 0
-356 358 -361 368 -381 0
-356 358 -361 -368 382 0
-356 358 -361 -368 -382 0
-356 -358 362 369 383 0
-356 -358 362 369 -383 0
-356 -358 362 -369 384 0
-356 -358 362 -369 -384 0
-356 -358 -362 370 385 0
-356 -358 -362 370 -385 0
-356 -358 -362 -370 386 0
-356 -358 -362 -370 -386 0

